c "983703.clq"
p edge 140 544
e 1 5
e 1 47
e 1 93
e 1 96
e 1 117
e 2 5
e 2 6
e 2 7
e 2 8
e 2 9
e 2 10
e 2 11
e 2 13
e 2 14
e 2 15
e 2 16
e 2 18
e 2 22
e 2 23
e 2 26
e 2 29
e 2 34
e 2 36
e 2 38
e 2 39
e 2 40
e 2 54
e 2 61
e 2 69
e 2 73
e 2 74
e 2 83
e 2 86
e 2 88
e 2 104
e 2 108
e 2 116
e 2 121
e 2 122
e 2 131
e 2 138
e 3 5
e 3 6
e 3 7
e 3 8
e 3 10
e 3 14
e 3 15
e 3 17
e 3 18
e 3 21
e 3 24
e 3 26
e 3 34
e 3 46
e 3 53
e 3 56
e 3 59
e 3 61
e 3 64
e 3 68
e 3 71
e 3 74
e 3 96
e 3 122
e 3 126
e 4 5
e 4 6
e 4 8
e 4 13
e 4 31
e 4 36
e 4 52
e 4 54
e 4 100
e 4 116
e 4 127
e 4 134
e 5 6
e 5 7
e 5 9
e 5 11
e 5 12
e 5 14
e 5 18
e 5 19
e 5 23
e 5 24
e 5 25
e 5 27
e 5 28
e 5 29
e 5 31
e 5 40
e 5 41
e 5 44
e 5 48
e 5 49
e 5 52
e 5 63
e 5 66
e 5 69
e 5 79
e 5 84
e 5 90
e 5 96
e 5 102
e 5 109
e 5 121
e 5 125
e 5 130
e 6 7
e 6 8
e 6 9
e 6 10
e 6 11
e 6 12
e 6 13
e 6 16
e 6 22
e 6 28
e 6 29
e 6 31
e 6 32
e 6 35
e 6 37
e 6 41
e 6 45
e 6 47
e 6 54
e 6 56
e 6 58
e 6 62
e 6 67
e 6 73
e 6 76
e 6 78
e 6 82
e 6 85
e 6 86
e 6 87
e 6 89
e 6 91
e 6 98
e 6 100
e 6 107
e 6 109
e 6 123
e 6 124
e 6 137
e 7 9
e 7 25
e 7 28
e 7 30
e 7 32
e 7 35
e 7 36
e 7 42
e 7 45
e 7 48
e 7 60
e 7 64
e 7 70
e 7 88
e 7 136
e 8 20
e 8 34
e 8 45
e 8 46
e 8 64
e 8 77
e 8 83
e 9 10
e 9 11
e 9 12
e 9 13
e 9 16
e 9 20
e 9 24
e 9 36
e 9 37
e 9 38
e 9 40
e 9 48
e 9 50
e 9 55
e 9 60
e 9 62
e 9 69
e 9 72
e 9 75
e 9 78
e 9 81
e 9 86
e 9 94
e 9 98
e 9 99
e 9 101
e 9 116
e 9 122
e 10 17
e 10 56
e 11 12
e 11 15
e 11 21
e 11 22
e 11 33
e 11 43
e 11 47
e 11 52
e 11 66
e 11 79
e 11 88
e 11 102
e 12 15
e 12 16
e 12 17
e 12 19
e 12 27
e 12 37
e 12 42
e 12 43
e 12 54
e 12 57
e 12 61
e 12 78
e 12 84
e 12 87
e 12 97
e 12 103
e 12 113
e 13 14
e 13 20
e 13 26
e 13 53
e 13 89
e 13 115
e 13 123
e 13 124
e 13 129
e 14 17
e 14 19
e 14 21
e 14 24
e 14 27
e 14 29
e 14 33
e 14 42
e 14 44
e 14 57
e 14 60
e 14 64
e 14 76
e 14 78
e 14 81
e 14 82
e 14 84
e 14 94
e 14 101
e 14 112
e 14 113
e 14 126
e 14 131
e 14 140
e 15 18
e 15 35
e 15 70
e 15 72
e 15 79
e 15 125
e 15 136
e 16 27
e 16 28
e 16 62
e 16 82
e 16 95
e 16 115
e 16 125
e 17 19
e 17 100
e 17 129
e 18 21
e 18 23
e 18 30
e 18 34
e 18 57
e 18 59
e 18 73
e 19 20
e 19 25
e 19 26
e 19 30
e 19 41
e 19 49
e 19 50
e 19 70
e 19 76
e 19 138
e 20 22
e 20 33
e 20 71
e 20 84
e 20 93
e 21 25
e 21 41
e 21 42
e 21 51
e 21 55
e 21 58
e 21 59
e 21 68
e 21 74
e 21 83
e 21 103
e 21 107
e 21 119
e 21 123
e 21 128
e 21 137
e 22 23
e 23 51
e 23 65
e 23 92
e 23 113
e 24 32
e 24 38
e 24 40
e 24 44
e 24 45
e 24 46
e 24 51
e 24 106
e 24 111
e 24 132
e 24 133
e 24 135
e 25 91
e 26 31
e 26 39
e 26 52
e 26 61
e 26 105
e 26 109
e 26 119
e 26 120
e 26 123
e 26 130
e 27 32
e 27 33
e 27 39
e 27 43
e 27 55
e 27 80
e 27 127
e 28 30
e 28 35
e 28 43
e 28 51
e 28 75
e 28 77
e 28 95
e 29 92
e 29 97
e 29 124
e 30 96
e 30 122
e 31 37
e 31 60
e 31 65
e 31 68
e 31 85
e 31 89
e 31 104
e 31 114
e 31 131
e 31 133
e 31 134
e 32 39
e 32 50
e 32 65
e 32 67
e 32 68
e 32 69
e 32 75
e 32 80
e 32 91
e 32 98
e 32 99
e 32 106
e 32 113
e 33 46
e 33 63
e 33 67
e 33 110
e 33 117
e 33 131
e 34 38
e 34 47
e 34 134
e 35 53
e 35 58
e 35 88
e 36 50
e 36 93
e 36 103
e 36 140
e 37 44
e 37 48
e 37 56
e 37 72
e 37 119
e 38 55
e 38 98
e 39 90
e 40 49
e 40 53
e 40 57
e 40 63
e 41 85
e 41 103
e 41 128
e 42 66
e 42 67
e 42 135
e 43 62
e 43 73
e 43 77
e 43 82
e 43 108
e 43 135
e 43 137
e 45 49
e 45 66
e 46 101
e 46 111
e 46 119
e 46 129
e 47 81
e 47 87
e 47 95
e 47 135
e 48 63
e 48 74
e 48 79
e 48 90
e 49 59
e 49 77
e 49 99
e 50 71
e 50 107
e 50 114
e 51 112
e 51 114
e 52 92
e 52 95
e 53 58
e 53 101
e 53 110
e 53 118
e 54 111
e 54 120
e 56 124
e 59 86
e 59 107
e 60 81
e 62 70
e 62 76
e 63 106
e 63 114
e 64 65
e 64 80
e 64 93
e 64 94
e 64 97
e 64 105
e 64 115
e 64 117
e 67 71
e 67 72
e 67 83
e 67 102
e 67 109
e 68 89
e 68 91
e 68 104
e 68 118
e 68 133
e 69 105
e 70 92
e 70 104
e 70 140
e 71 100
e 71 105
e 72 75
e 72 120
e 72 126
e 73 87
e 73 90
e 73 97
e 73 116
e 73 138
e 74 111
e 74 139
e 75 80
e 75 138
e 76 85
e 76 120
e 80 112
e 80 127
e 84 132
e 86 102
e 87 136
e 89 106
e 90 110
e 91 94
e 91 132
e 92 125
e 92 127
e 92 130
e 94 118
e 96 110
e 96 128
e 96 140
e 97 99
e 97 108
e 97 121
e 101 134
e 102 108
e 105 133
e 106 129
e 109 112
e 109 128
e 110 130
e 111 117
e 112 137
e 113 118
e 113 121
e 113 139
e 114 115
e 114 126
e 117 139
e 120 132
e 128 139
e 134 136
